sat
(:max-memory                   18.24
 :memory                       18.04
 :nlsat-conflicts              5
 :nlsat-decisions              3
 :nlsat-irrational-assignments 1
 :nlsat-propagations           29
 :nlsat-stages                 8
 :num-allocs                   109701
 :rlimit-count                 35606
 :time                         0.04
 :total-time                   0.05)
